
(set-logic HORN)
(define-fun Z_895 () Int 0)
(define-fun S_245 ((x Int)) Int (+ x 1))
(define-fun zero_48 () Int 0)
(define-fun succ_47 ((x Int)) Int (+ x 1))
(declare-fun diseqInt (Int Int) Bool)
(declare-fun unS_315 (Int Int) Bool)
(declare-fun isZ_230 (Int) Bool)
(declare-fun isS_230 (Int) Bool)
(assert (forall ((x_22877 Int))
	(unS_315 x_22877 (S_245 x_22877))))
(assert (isZ_230 Z_895))
(assert (forall ((x_22879 Int))
	(isS_230 (S_245 x_22879))))
(assert (forall ((x_22880 Int))
	(diseqInt Z_895 (S_245 x_22880))))
(assert (forall ((x_22881 Int))
	(diseqInt (S_245 x_22881) Z_895)))
(assert (forall ((x_22882 Int) (x_22883 Int))
	(=> (diseqInt x_22882 x_22883) (diseqInt (S_245 x_22882) (S_245 x_22883)))))
(declare-fun add_167 (Int Int Int) Bool)
(declare-fun minus_161 (Int Int Int) Bool)
(declare-fun le_157 (Int Int) Bool)
(declare-fun ge_157 (Int Int) Bool)
(declare-fun lt_163 (Int Int) Bool)
(declare-fun gt_158 (Int Int) Bool)
(declare-fun mult_157 (Int Int Int) Bool)
(declare-fun div_157 (Int Int Int) Bool)
(declare-fun mod_157 (Int Int Int) Bool)
(assert (forall ((y_909 Int))
	(add_167 y_909 Z_895 y_909)))
(assert (forall ((x_22853 Int) (y_909 Int) (r_187 Int))
	(=> (add_167 r_187 x_22853 y_909) (add_167 (S_245 r_187) (S_245 x_22853) y_909))))
(assert (forall ((y_909 Int))
	(minus_161 Z_895 Z_895 y_909)))
(assert (forall ((x_22853 Int) (y_909 Int) (r_187 Int))
	(=> (minus_161 r_187 x_22853 y_909) (minus_161 (S_245 r_187) (S_245 x_22853) y_909))))
(assert (forall ((y_909 Int))
	(le_157 Z_895 y_909)))
(assert (forall ((x_22853 Int) (y_909 Int))
	(=> (le_157 x_22853 y_909) (le_157 (S_245 x_22853) (S_245 y_909)))))
(assert (forall ((y_909 Int))
	(ge_157 y_909 Z_895)))
(assert (forall ((x_22853 Int) (y_909 Int))
	(=> (ge_157 x_22853 y_909) (ge_157 (S_245 x_22853) (S_245 y_909)))))
(assert (forall ((y_909 Int))
	(lt_163 Z_895 (S_245 y_909))))
(assert (forall ((x_22853 Int) (y_909 Int))
	(=> (lt_163 x_22853 y_909) (lt_163 (S_245 x_22853) (S_245 y_909)))))
(assert (forall ((y_909 Int))
	(gt_158 (S_245 y_909) Z_895)))
(assert (forall ((x_22853 Int) (y_909 Int))
	(=> (gt_158 x_22853 y_909) (gt_158 (S_245 x_22853) (S_245 y_909)))))
(assert (forall ((y_909 Int))
	(mult_157 Z_895 Z_895 y_909)))
(assert (forall ((x_22853 Int) (y_909 Int) (r_187 Int) (z_896 Int))
	(=> (and (mult_157 r_187 x_22853 y_909) (add_167 z_896 r_187 y_909)) (mult_157 z_896 (S_245 x_22853) y_909))))
(assert (forall ((x_22853 Int) (y_909 Int))
	(=> (lt_163 x_22853 y_909) (div_157 Z_895 x_22853 y_909))))
(assert (forall ((x_22853 Int) (y_909 Int) (r_187 Int) (z_896 Int))
	(=> (and (ge_157 x_22853 y_909) (minus_161 z_896 x_22853 y_909) (div_157 r_187 z_896 y_909)) (div_157 (S_245 r_187) x_22853 y_909))))
(assert (forall ((x_22853 Int) (y_909 Int))
	(=> (lt_163 x_22853 y_909) (mod_157 x_22853 x_22853 y_909))))
(assert (forall ((x_22853 Int) (y_909 Int) (r_187 Int) (z_896 Int))
	(=> (and (ge_157 x_22853 y_909) (minus_161 z_896 x_22853 y_909) (mod_157 r_187 z_896 y_909)) (mod_157 r_187 x_22853 y_909))))
(declare-datatypes ((list_113 0)) (((nil_125) (cons_113 (head_226 Int) (tail_226 list_113)))))
(declare-fun diseqlist_113 (list_113 list_113) Bool)
(declare-fun head_227 (Int list_113) Bool)
(declare-fun tail_227 (list_113 list_113) Bool)
(declare-fun isnil_125 (list_113) Bool)
(declare-fun iscons_113 (list_113) Bool)
(assert (forall ((x_22855 Int) (x_22856 list_113))
	(head_227 x_22855 (cons_113 x_22855 x_22856))))
(assert (forall ((x_22855 Int) (x_22856 list_113))
	(tail_227 x_22856 (cons_113 x_22855 x_22856))))
(assert (isnil_125 nil_125))
(assert (forall ((x_22858 Int) (x_22859 list_113))
	(iscons_113 (cons_113 x_22858 x_22859))))
(assert (forall ((x_22860 Int) (x_22861 list_113))
	(diseqlist_113 nil_125 (cons_113 x_22860 x_22861))))
(assert (forall ((x_22862 Int) (x_22863 list_113))
	(diseqlist_113 (cons_113 x_22862 x_22863) nil_125)))
(assert (forall ((x_22864 Int) (x_22865 list_113) (x_22866 Int) (x_22867 list_113))
	(=> (diseqInt x_22864 x_22866) (diseqlist_113 (cons_113 x_22864 x_22865) (cons_113 x_22866 x_22867)))))
(assert (forall ((x_22864 Int) (x_22865 list_113) (x_22866 Int) (x_22867 list_113))
	(=> (diseqlist_113 x_22865 x_22867) (diseqlist_113 (cons_113 x_22864 x_22865) (cons_113 x_22866 x_22867)))))
(declare-fun diseqInt (Int Int) Bool)
(declare-fun p_135 (Int Int) Bool)
(declare-fun iszero_47 (Int) Bool)
(declare-fun issucc_47 (Int) Bool)
(assert (forall ((x_22869 Int))
	(p_135 x_22869 (succ_47 x_22869))))
(assert (iszero_47 zero_48))
(assert (forall ((x_22871 Int))
	(issucc_47 (succ_47 x_22871))))
(assert (forall ((x_22872 Int))
	(diseqInt zero_48 (succ_47 x_22872))))
(assert (forall ((x_22873 Int))
	(diseqInt (succ_47 x_22873) zero_48)))
(assert (forall ((x_22874 Int) (x_22875 Int))
	(=> (diseqInt x_22874 x_22875) (diseqInt (succ_47 x_22874) (succ_47 x_22875)))))
(declare-fun snoc_0 (list_113 Int list_113) Bool)
(assert (forall ((x_22829 list_113) (z_890 Int) (ys_85 list_113) (x_22820 Int))
	(=> (snoc_0 x_22829 x_22820 ys_85) (snoc_0 (cons_113 z_890 x_22829) x_22820 (cons_113 z_890 ys_85)))))
(assert (forall ((x_22820 Int))
	(snoc_0 (cons_113 x_22820 nil_125) x_22820 nil_125)))
(declare-fun rotate_0 (list_113 Int list_113) Bool)
(assert (forall ((x_22831 list_113) (x_22832 list_113) (z_892 Int) (xs_281 list_113) (z_891 Int))
	(=> (and (snoc_0 x_22832 z_892 xs_281) (rotate_0 x_22831 z_891 x_22832)) (rotate_0 x_22831 (succ_47 z_891) (cons_113 z_892 xs_281)))))
(assert (forall ((z_891 Int))
	(rotate_0 nil_125 (succ_47 z_891) nil_125)))
(assert (forall ((x_22835 list_113))
	(rotate_0 x_22835 zero_48 x_22835)))
(declare-fun plus_46 (Int Int Int) Bool)
(assert (forall ((x_22837 Int) (z_893 Int) (y_905 Int))
	(=> (plus_46 x_22837 z_893 y_905) (plus_46 (succ_47 x_22837) (succ_47 z_893) y_905))))
(assert (forall ((x_22838 Int))
	(plus_46 x_22838 zero_48 x_22838)))
(declare-fun length_11 (Int list_113) Bool)
(assert (forall ((x_22839 Int) (x_22840 Int) (y_906 Int) (l_13 list_113))
	(=> (and (length_11 x_22840 l_13) (plus_46 x_22839 (succ_47 zero_48) x_22840)) (length_11 x_22839 (cons_113 y_906 l_13)))))
(assert (length_11 zero_48 nil_125))
(assert (forall ((x_22843 Int) (x_22844 Int) (x_22845 Int) (x_22846 Int) (x_22824 Int) (y_907 Int) (z_894 Int))
	(=> (and true (diseqInt x_22844 x_22846) (plus_46 x_22843 y_907 z_894) (plus_46 x_22844 x_22824 x_22843) (plus_46 x_22845 x_22824 y_907) (plus_46 x_22846 x_22845 z_894)) false)))
(assert (forall ((x_22847 Int) (x_22848 Int) (x_22825 Int) (y_908 Int))
	(=> (and true (diseqInt x_22847 x_22848) (plus_46 x_22847 x_22825 y_908) (plus_46 x_22848 y_908 x_22825)) false)))
(assert (forall ((x_22849 Int) (x_22826 Int))
	(=> (and true (diseqInt x_22849 x_22826) (plus_46 x_22849 x_22826 zero_48)) false)))
(assert (forall ((x_22850 Int) (x_22827 Int))
	(=> (and true (diseqInt x_22850 x_22827) (plus_46 x_22850 zero_48 x_22827)) false)))
(assert (forall ((x_22851 Int) (x_22852 list_113) (xs_282 list_113))
	(=> (and true (diseqlist_113 x_22852 xs_282) (length_11 x_22851 xs_282) (rotate_0 x_22852 x_22851 xs_282)) false)))
(check-sat)
